data/solutions/planning/wellformed/moderate/sequential/wellformed_moderate_instance9_cplex.sol
Elapsed time: 0.02
Nodes explored: -
Nodes left: -
Relative gap: -
Upper bound: 7543.0
Lower bound: -
C[0]=1078.0
C[1]=1077.0
C[2]=1077.0
y[0]=2
y[1]=2
y[2]=0
y[3]=0
y[4]=1
y[5]=1
y[6]=1
y[7]=2
y[8]=0
y[9]=2
y[10]=1
y[11]=2
y[12]=1
y[13]=0
y[14]=2
y[15]=0
y[16]=2
y[17]=0
y[18]=1
y[19]=0
y[20]=0
y[21]=0
y[22]=2
y[23]=2
y[24]=1
y[25]=1
y[26]=0
y[27]=2
y[28]=1
y[29]=0
