data/solutions/planning/wellformed/moderate/sequential/wellformed_moderate_instance9_cplex.log
Found incumbent of value 3232.000000 after 0.00 sec. (0.01 ticks)
Tried aggregator 2 times.
Aggregator did 2 substitutions.
Reduced MIP has 33 rows, 91 columns, and 183 nonzeros.
Reduced MIP has 90 binaries, 0 generals, 0 SOSs, and 0 indicators.
Presolve time = 0.00 sec. (0.22 ticks)
Probing fixed 0 vars, tightened 1 bounds.
Probing time = 0.00 sec. (0.08 ticks)
Tried aggregator 1 time.
Reduced MIP has 33 rows, 91 columns, and 183 nonzeros.
Reduced MIP has 90 binaries, 1 generals, 0 SOSs, and 0 indicators.
Presolve time = 0.00 sec. (0.12 ticks)
Probing time = 0.00 sec. (0.06 ticks)
Clique table members: 30.
MIP emphasis: balance optimality and feasibility.
MIP search method: dynamic search.
Parallel mode: none, using 1 thread.
Root relaxation solution time = 0.00 sec. (0.08 ticks)

        Nodes                                         Cuts/
   Node  Left     Objective  IInf  Best Integer    Best Bound    ItCnt     Gap

*     0+    0                         3232.0000        0.0000           100.00%
      0     0     1077.3333     5     3232.0000     1077.3333        3   66.67%
*     0+    0                         1125.0000     1077.3333             4.24%
      0     0     1077.3333     9     1125.0000       Cuts: 8       12    4.24%
*     0+    0                         1104.0000     1077.3333             2.42%
      0     0     1077.3333     9     1104.0000       Cuts: 6       17    2.42%
*     0+    0                         1099.0000     1077.3333             1.97%
*     0+    0                         1087.0000     1077.3333             0.89%
      0     2     1077.3333     9     1087.0000     1077.3333       17    0.89%
Elapsed time = 0.00 sec. (2.29 ticks, tree = 0.01 MB, solutions = 5)
*    19    17      integral     0     1080.0000     1077.3333       78    0.25%
*    90+   64                         1079.0000     1077.3333             0.15%
*   165     1      integral     0     1078.0000     1077.3333      347    0.06%

Cover cuts applied:  6
Lift and project cuts applied:  1
Gomory fractional cuts applied:  1

Root node processing (before b&c):
  Real time             =    0.00 sec. (2.29 ticks)
Sequential b&c:
  Real time             =    0.01 sec. (6.64 ticks)
                          ------------
Total (root+branch&cut) =    0.01 sec. (8.93 ticks)
2 of 8 MIP starts provided solutions.
MIP start 'm1' defined initial solution with objective 1077.0000.
Tried aggregator 2 times.
MIP Presolve eliminated 1 rows and 0 columns.
Aggregator did 1 substitutions.
Reduced MIP has 34 rows, 92 columns, and 185 nonzeros.
Reduced MIP has 90 binaries, 0 generals, 0 SOSs, and 0 indicators.
Presolve time = 0.00 sec. (0.19 ticks)
Probing time = 0.00 sec. (0.06 ticks)
Cover probing fixed 0 vars, tightened 4 bounds.
Tried aggregator 1 time.
Reduced MIP has 34 rows, 92 columns, and 185 nonzeros.
Reduced MIP has 90 binaries, 2 generals, 0 SOSs, and 0 indicators.
Presolve time = 0.00 sec. (0.12 ticks)
Probing time = 0.00 sec. (0.05 ticks)
Clique table members: 30.
MIP emphasis: balance optimality and feasibility.
MIP search method: dynamic search.
Parallel mode: none, using 1 thread.
Root relaxation solution time = 0.00 sec. (0.07 ticks)

        Nodes                                         Cuts/
   Node  Left     Objective  IInf  Best Integer    Best Bound    ItCnt     Gap

*     0+    0                         1077.0000        0.0000           100.00%
      0     0        cutoff           1077.0000                      4    0.00%

Root node processing (before b&c):
  Real time             =    0.00 sec. (0.73 ticks)
Sequential b&c:
  Real time             =    0.00 sec. (0.00 ticks)
                          ------------
Total (root+branch&cut) =    0.00 sec. (0.73 ticks)
1 of 1 MIP starts provided solutions.
MIP start 'm1' defined initial solution with objective 1077.0000.
Tried aggregator 2 times.
MIP Presolve eliminated 3 rows and 0 columns.
Aggregator did 1 substitutions.
Reduced MIP has 34 rows, 92 columns, and 185 nonzeros.
Reduced MIP has 90 binaries, 0 generals, 0 SOSs, and 0 indicators.
Presolve time = 0.00 sec. (0.19 ticks)
Probing time = 0.00 sec. (0.06 ticks)
Cover probing fixed 0 vars, tightened 4 bounds.
Tried aggregator 1 time.
Reduced MIP has 34 rows, 92 columns, and 185 nonzeros.
Reduced MIP has 90 binaries, 2 generals, 0 SOSs, and 0 indicators.
Presolve time = 0.00 sec. (0.12 ticks)
Probing time = 0.00 sec. (0.05 ticks)
Clique table members: 30.
MIP emphasis: balance optimality and feasibility.
MIP search method: dynamic search.
Parallel mode: none, using 1 thread.
Root relaxation solution time = 0.00 sec. (0.07 ticks)

        Nodes                                         Cuts/
   Node  Left     Objective  IInf  Best Integer    Best Bound    ItCnt     Gap

*     0+    0                         1077.0000        0.0000           100.00%
      0     0        cutoff           1077.0000                      2    0.00%

Root node processing (before b&c):
  Real time             =    0.00 sec. (0.71 ticks)
Sequential b&c:
  Real time             =    0.00 sec. (0.00 ticks)
                          ------------
Total (root+branch&cut) =    0.00 sec. (0.71 ticks)
